p cnf 742 2135
3 -5 51 0
-3 -5 -51 0
3 5 -51 0
-3 5 51 0
-7 10 52 0
7 10 -52 0
-7 -10 -52 0
7 -10 52 0
-12 16 53 0
12 16 -53 0
-12 -16 -53 0
12 -16 53 0
-19 20 54 0
19 20 -54 0
-19 -20 -54 0
19 -20 54 0
22 23 55 0
-22 23 -55 0
22 -23 -55 0
-22 -23 55 0
-24 25 56 0
24 25 -56 0
-24 -25 -56 0
24 -25 56 0
-26 -27 57 0
26 -27 -57 0
-26 27 -57 0
26 27 57 0
28 29 58 0
-28 29 -58 0
28 -29 -58 0
-28 -29 58 0
-32 -34 59 0
32 -34 -59 0
-32 34 -59 0
32 34 59 0
-37 39 60 0
37 39 -60 0
-37 -39 -60 0
37 -39 60 0
-41 -42 61 0
41 -42 -61 0
-41 42 -61 0
41 42 61 0
45 49 62 0
-45 49 -62 0
45 -49 -62 0
-45 -49 62 0
51 -52 63 0
-51 -52 -63 0
51 52 -63 0
-51 52 63 0
53 -54 64 0
-53 -54 -64 0
53 54 -64 0
-53 54 64 0
55 -56 65 0
-55 -56 -65 0
55 56 -65 0
-55 56 65 0
57 -58 66 0
-57 -58 -66 0
57 58 -66 0
-57 58 66 0
59 -60 67 0
-59 -60 -67 0
59 60 -67 0
-59 60 67 0
61 -62 68 0
-61 -62 -68 0
61 62 -68 0
-61 62 68 0
63 -64 69 0
-63 -64 -69 0
63 64 -69 0
-63 64 69 0
65 -66 70 0
-65 -66 -70 0
65 66 -70 0
-65 66 70 0
67 -68 71 0
-67 -68 -71 0
67 68 -71 0
-67 68 71 0
-69 -70 71 0
69 -70 -71 0
-69 70 -71 0
69 70 71 0
1 2 72 0
-1 2 -72 0
1 -2 -72 0
-1 -2 72 0
4 -5 73 0
-4 -5 -73 0
4 5 -73 0
-4 5 73 0
8 -10 74 0
-8 -10 -74 0
8 10 -74 0
-8 10 74 0
11 12 75 0
-11 12 -75 0
11 -12 -75 0
-11 -12 75 0
13 16 76 0
-13 16 -76 0
13 -16 -76 0
-13 -16 76 0
-17 -18 77 0
17 -18 -77 0
-17 18 -77 0
17 18 77 0
-22 24 78 0
22 24 -78 0
-22 -24 -78 0
22 -24 78 0
25 -26 79 0
-25 -26 -79 0
25 26 -79 0
-25 26 79 0
-28 29 80 0
28 29 -80 0
-28 -29 -80 0
28 -29 80 0
30 31 81 0
-30 31 -81 0
30 -31 -81 0
-30 -31 81 0
34 -35 82 0
-34 -35 -82 0
34 35 -82 0
-34 35 82 0
37 39 83 0
-37 39 -83 0
37 -39 -83 0
-37 -39 83 0
-40 -41 84 0
40 -41 -84 0
-40 41 -84 0
40 41 84 0
-43 -49 85 0
43 -49 -85 0
-43 49 -85 0
43 49 85 0
72 -73 86 0
-72 -73 -86 0
72 73 -86 0
-72 73 86 0
74 -75 87 0
-74 -75 -87 0
74 75 -87 0
-74 75 87 0
76 -77 88 0
-76 -77 -88 0
76 77 -88 0
-76 77 88 0
78 -79 89 0
-78 -79 -89 0
78 79 -89 0
-78 79 89 0
80 -81 90 0
-80 -81 -90 0
80 81 -90 0
-80 81 90 0
82 -83 91 0
-82 -83 -91 0
82 83 -91 0
-82 83 91 0
84 -85 92 0
-84 -85 -92 0
84 85 -92 0
-84 85 92 0
86 -87 93 0
-86 -87 -93 0
86 87 -93 0
-86 87 93 0
88 -89 94 0
-88 -89 -94 0
88 89 -94 0
-88 89 94 0
90 -91 95 0
-90 -91 -95 0
90 91 -95 0
-90 91 95 0
92 -93 96 0
-92 -93 -96 0
92 93 -96 0
-92 93 96 0
94 -95 97 0
-94 -95 -97 0
94 95 -97 0
-94 95 97 0
96 97 0
-96 -97 0
1 2 98 0
-1 2 -98 0
1 -2 -98 0
-1 -2 98 0
3 -4 99 0
-3 -4 -99 0
3 4 -99 0
-3 4 99 0
-5 6 100 0
5 6 -100 0
-5 -6 -100 0
5 -6 100 0
-7 8 101 0
7 8 -101 0
-7 -8 -101 0
7 -8 101 0
-9 -10 102 0
9 -10 -102 0
-9 10 -102 0
9 10 102 0
14 15 103 0
-14 15 -103 0
14 -15 -103 0
-14 -15 103 0
19 22 104 0
-19 22 -104 0
19 -22 -104 0
-19 -22 104 0
-24 -30 105 0
24 -30 -105 0
-24 30 -105 0
24 30 105 0
-33 -34 106 0
33 -34 -106 0
-33 34 -106 0
33 34 106 0
36 37 107 0
-36 37 -107 0
36 -37 -107 0
-36 -37 107 0
-38 40 108 0
38 40 -108 0
-38 -40 -108 0
38 -40 108 0
41 42 109 0
-41 42 -109 0
41 -42 -109 0
-41 -42 109 0
48 50 110 0
-48 50 -110 0
48 -50 -110 0
-48 -50 110 0
98 -99 111 0
-98 -99 -111 0
98 99 -111 0
-98 99 111 0
100 -101 112 0
-100 -101 -112 0
100 101 -112 0
-100 101 112 0
102 -103 113 0
-102 -103 -113 0
102 103 -113 0
-102 103 113 0
104 -105 114 0
-104 -105 -114 0
104 105 -114 0
-104 105 114 0
106 -107 115 0
-106 -107 -115 0
106 107 -115 0
-106 107 115 0
108 -109 116 0
-108 -109 -116 0
108 109 -116 0
-108 109 116 0
110 -111 117 0
-110 -111 -117 0
110 111 -117 0
-110 111 117 0
112 -113 118 0
-112 -113 -118 0
112 113 -118 0
-112 113 118 0
114 -115 119 0
-114 -115 -119 0
114 115 -119 0
-114 115 119 0
116 -117 120 0
-116 -117 -120 0
116 117 -120 0
-116 117 120 0
118 -119 121 0
-118 -119 -121 0
118 119 -121 0
-118 119 121 0
120 121 0
-120 -121 0
-2 3 122 0
2 3 -122 0
-2 -3 -122 0
2 -3 122 0
-7 -10 123 0
7 -10 -123 0
-7 10 -123 0
7 10 123 0
-11 12 124 0
11 12 -124 0
-11 -12 -124 0
11 -12 124 0
13 14 125 0
-13 14 -125 0
13 -14 -125 0
-13 -14 125 0
-17 18 126 0
17 18 -126 0
-17 -18 -126 0
17 -18 126 0
19 20 127 0
-19 20 -127 0
19 -20 -127 0
-19 -20 127 0
22 23 128 0
-22 23 -128 0
22 -23 -128 0
-22 -23 128 0
-24 -25 129 0
24 -25 -129 0
-24 25 -129 0
24 25 129 0
28 30 130 0
-28 30 -130 0
28 -30 -130 0
-28 -30 130 0
-31 33 131 0
31 33 -131 0
-31 -33 -131 0
31 -33 131 0
35 -36 132 0
-35 -36 -132 0
35 36 -132 0
-35 36 132 0
37 40 133 0
-37 40 -133 0
37 -40 -133 0
-37 -40 133 0
44 -45 134 0
-44 -45 -134 0
44 45 -134 0
-44 45 134 0
-46 47 135 0
46 47 -135 0
-46 -47 -135 0
46 -47 135 0
121 -122 136 0
-121 -122 -136 0
121 122 -136 0
-121 122 136 0
123 -124 137 0
-123 -124 -137 0
123 124 -137 0
-123 124 137 0
125 -126 138 0
-125 -126 -138 0
125 126 -138 0
-125 126 138 0
127 -128 139 0
-127 -128 -139 0
127 128 -139 0
-127 128 139 0
129 -130 140 0
-129 -130 -140 0
129 130 -140 0
-129 130 140 0
131 -132 141 0
-131 -132 -141 0
131 132 -141 0
-131 132 141 0
133 -134 142 0
-133 -134 -142 0
133 134 -142 0
-133 134 142 0
135 -136 143 0
-135 -136 -143 0
135 136 -143 0
-135 136 143 0
137 -138 144 0
-137 -138 -144 0
137 138 -144 0
-137 138 144 0
139 -140 145 0
-139 -140 -145 0
139 140 -145 0
-139 140 145 0
141 -142 146 0
-141 -142 -146 0
141 142 -146 0
-141 142 146 0
143 -144 147 0
-143 -144 -147 0
143 144 -147 0
-143 144 147 0
145 -146 148 0
-145 -146 -148 0
145 146 -148 0
-145 146 148 0
147 148 0
-147 -148 0
1 -4 149 0
-1 -4 -149 0
1 4 -149 0
-1 4 149 0
-6 7 150 0
6 7 -150 0
-6 -7 -150 0
6 -7 150 0
9 -11 151 0
-9 -11 -151 0
9 11 -151 0
-9 11 151 0
15 19 152 0
-15 19 -152 0
15 -19 -152 0
-15 -19 152 0
-25 27 153 0
25 27 -153 0
-25 -27 -153 0
25 -27 153 0
-34 -36 154 0
34 -36 -154 0
-34 36 -154 0
34 36 154 0
37 38 155 0
-37 38 -155 0
37 -38 -155 0
-37 -38 155 0
40 41 156 0
-40 41 -156 0
40 -41 -156 0
-40 -41 156 0
-43 -44 157 0
43 -44 -157 0
-43 44 -157 0
43 44 157 0
-46 -48 158 0
46 -48 -158 0
-46 48 -158 0
46 48 158 0
149 -150 159 0
-149 -150 -159 0
149 150 -159 0
-149 150 159 0
151 -152 160 0
-151 -152 -160 0
151 152 -160 0
-151 152 160 0
153 -154 161 0
-153 -154 -161 0
153 154 -161 0
-153 154 161 0
155 -156 162 0
-155 -156 -162 0
155 156 -162 0
-155 156 162 0
157 -158 163 0
-157 -158 -163 0
157 158 -163 0
-157 158 163 0
159 -160 164 0
-159 -160 -164 0
159 160 -164 0
-159 160 164 0
161 -162 165 0
-161 -162 -165 0
161 162 -165 0
-161 162 165 0
-163 -164 165 0
163 -164 -165 0
-163 164 -165 0
163 164 165 0
1 2 166 0
-1 2 -166 0
1 -2 -166 0
-1 -2 166 0
-4 7 167 0
4 7 -167 0
-4 -7 -167 0
4 -7 167 0
8 -9 168 0
-8 -9 -168 0
8 9 -168 0
-8 9 168 0
-14 18 169 0
14 18 -169 0
-14 -18 -169 0
14 -18 169 0
-19 -20 170 0
19 -20 -170 0
-19 20 -170 0
19 20 170 0
-22 23 171 0
22 23 -171 0
-22 -23 -171 0
22 -23 171 0
-24 -28 172 0
24 -28 -172 0
-24 28 -172 0
24 28 172 0
31 -33 173 0
-31 -33 -173 0
31 33 -173 0
-31 33 173 0
-36 37 174 0
36 37 -174 0
-36 -37 -174 0
36 -37 174 0
-38 40 175 0
38 40 -175 0
-38 -40 -175 0
38 -40 175 0
165 -166 176 0
-165 -166 -176 0
165 166 -176 0
-165 166 176 0
167 -168 177 0
-167 -168 -177 0
167 168 -177 0
-167 168 177 0
169 -170 178 0
-169 -170 -178 0
169 170 -178 0
-169 170 178 0
171 -172 179 0
-171 -172 -179 0
171 172 -179 0
-171 172 179 0
173 -174 180 0
-173 -174 -180 0
173 174 -180 0
-173 174 180 0
175 -176 181 0
-175 -176 -181 0
175 176 -181 0
-175 176 181 0
177 -178 182 0
-177 -178 -182 0
177 178 -182 0
-177 178 182 0
179 -180 183 0
-179 -180 -183 0
179 180 -183 0
-179 180 183 0
-181 -182 183 0
181 -182 -183 0
-181 182 -183 0
181 182 183 0
-1 -3 184 0
1 -3 -184 0
-1 3 -184 0
1 3 184 0
-4 5 185 0
4 5 -185 0
-4 -5 -185 0
4 -5 185 0
-7 -13 186 0
7 -13 -186 0
-7 13 -186 0
7 13 186 0
16 -17 187 0
-16 -17 -187 0
16 17 -187 0
-16 17 187 0
-18 -21 188 0
18 -21 -188 0
-18 21 -188 0
18 21 188 0
23 -27 189 0
-23 -27 -189 0
23 27 -189 0
-23 27 189 0
29 -31 190 0
-29 -31 -190 0
29 31 -190 0
-29 31 190 0
-37 -39 191 0
37 -39 -191 0
-37 39 -191 0
37 39 191 0
-41 -43 192 0
41 -43 -192 0
-41 43 -192 0
41 43 192 0
-44 46 193 0
44 46 -193 0
-44 -46 -193 0
44 -46 193 0
-48 -49 194 0
48 -49 -194 0
-48 49 -194 0
48 49 194 0
183 -184 195 0
-183 -184 -195 0
183 184 -195 0
-183 184 195 0
185 -186 196 0
-185 -186 -196 0
185 186 -196 0
-185 186 196 0
187 -188 197 0
-187 -188 -197 0
187 188 -197 0
-187 188 197 0
189 -190 198 0
-189 -190 -198 0
189 190 -198 0
-189 190 198 0
191 -192 199 0
-191 -192 -199 0
191 192 -199 0
-191 192 199 0
193 -194 200 0
-193 -194 -200 0
193 194 -200 0
-193 194 200 0
195 -196 201 0
-195 -196 -201 0
195 196 -201 0
-195 196 201 0
197 -198 202 0
-197 -198 -202 0
197 198 -202 0
-197 198 202 0
199 -200 203 0
-199 -200 -203 0
199 200 -203 0
-199 200 203 0
-201 -202 203 0
201 -202 -203 0
-201 202 -203 0
201 202 203 0
-3 5 204 0
3 5 -204 0
-3 -5 -204 0
3 -5 204 0
-10 -13 205 0
10 -13 -205 0
-10 13 -205 0
10 13 205 0
14 15 206 0
-14 15 -206 0
14 -15 -206 0
-14 -15 206 0
17 -18 207 0
-17 -18 -207 0
17 18 -207 0
-17 18 207 0
21 22 208 0
-21 22 -208 0
21 -22 -208 0
-21 -22 208 0
-27 30 209 0
27 30 -209 0
-27 -30 -209 0
27 -30 209 0
-31 -32 210 0
31 -32 -210 0
-31 32 -210 0
31 32 210 0
33 -34 211 0
-33 -34 -211 0
33 34 -211 0
-33 34 211 0
39 41 212 0
-39 41 -212 0
39 -41 -212 0
-39 -41 212 0
43 46 213 0
-43 46 -213 0
43 -46 -213 0
-43 -46 213 0
203 -204 214 0
-203 -204 -214 0
203 204 -214 0
-203 204 214 0
205 -206 215 0
-205 -206 -215 0
205 206 -215 0
-205 206 215 0
207 -208 216 0
-207 -208 -216 0
207 208 -216 0
-207 208 216 0
209 -210 217 0
-209 -210 -217 0
209 210 -217 0
-209 210 217 0
211 -212 218 0
-211 -212 -218 0
211 212 -218 0
-211 212 218 0
213 -214 219 0
-213 -214 -219 0
213 214 -219 0
-213 214 219 0
215 -216 220 0
-215 -216 -220 0
215 216 -220 0
-215 216 220 0
217 -218 221 0
-217 -218 -221 0
217 218 -221 0
-217 218 221 0
-219 -220 221 0
219 -220 -221 0
-219 220 -221 0
219 220 221 0
3 4 222 0
-3 4 -222 0
3 -4 -222 0
-3 -4 222 0
-9 10 223 0
9 10 -223 0
-9 -10 -223 0
9 -10 223 0
-11 13 224 0
11 13 -224 0
-11 -13 -224 0
11 -13 224 0
-16 19 225 0
16 19 -225 0
-16 -19 -225 0
16 -19 225 0
-20 -22 226 0
20 -22 -226 0
-20 22 -226 0
20 22 226 0
24 -28 227 0
-24 -28 -227 0
24 28 -227 0
-24 28 227 0
-29 33 228 0
29 33 -228 0
-29 -33 -228 0
29 -33 228 0
-38 -40 229 0
38 -40 -229 0
-38 40 -229 0
38 40 229 0
-43 44 230 0
43 44 -230 0
-43 -44 -230 0
43 -44 230 0
-45 -50 231 0
45 -50 -231 0
-45 50 -231 0
45 50 231 0
222 -223 232 0
-222 -223 -232 0
222 223 -232 0
-222 223 232 0
224 -225 233 0
-224 -225 -233 0
224 225 -233 0
-224 225 233 0
226 -227 234 0
-226 -227 -234 0
226 227 -234 0
-226 227 234 0
228 -229 235 0
-228 -229 -235 0
228 229 -235 0
-228 229 235 0
230 -231 236 0
-230 -231 -236 0
230 231 -236 0
-230 231 236 0
232 -233 237 0
-232 -233 -237 0
232 233 -237 0
-232 233 237 0
234 -235 238 0
-234 -235 -238 0
234 235 -238 0
-234 235 238 0
-236 -237 238 0
236 -237 -238 0
-236 237 -238 0
236 237 238 0
1 2 239 0
-1 2 -239 0
1 -2 -239 0
-1 -2 239 0
-5 -6 240 0
5 -6 -240 0
-5 6 -240 0
5 6 240 0
9 11 241 0
-9 11 -241 0
9 -11 -241 0
-9 -11 241 0
14 19 242 0
-14 19 -242 0
14 -19 -242 0
-14 -19 242 0
-22 23 243 0
22 23 -243 0
-22 -23 -243 0
22 -23 243 0
-25 -26 244 0
25 -26 -244 0
-25 26 -244 0
25 26 244 0
28 29 245 0
-28 29 -245 0
28 -29 -245 0
-28 -29 245 0
30 -31 246 0
-30 -31 -246 0
30 31 -246 0
-30 31 246 0
32 33 247 0
-32 33 -247 0
32 -33 -247 0
-32 -33 247 0
35 -36 248 0
-35 -36 -248 0
35 36 -248 0
-35 36 248 0
-37 38 249 0
37 38 -249 0
-37 -38 -249 0
37 -38 249 0
41 -44 250 0
-41 -44 -250 0
41 44 -250 0
-41 44 250 0
-45 -46 251 0
45 -46 -251 0
-45 46 -251 0
45 46 251 0
47 -48 252 0
-47 -48 -252 0
47 48 -252 0
-47 48 252 0
239 -240 253 0
-239 -240 -253 0
239 240 -253 0
-239 240 253 0
241 -242 254 0
-241 -242 -254 0
241 242 -254 0
-241 242 254 0
243 -244 255 0
-243 -244 -255 0
243 244 -255 0
-243 244 255 0
245 -246 256 0
-245 -246 -256 0
245 246 -256 0
-245 246 256 0
247 -248 257 0
-247 -248 -257 0
247 248 -257 0
-247 248 257 0
249 -250 258 0
-249 -250 -258 0
249 250 -258 0
-249 250 258 0
251 -252 259 0
-251 -252 -259 0
251 252 -259 0
-251 252 259 0
253 -254 260 0
-253 -254 -260 0
253 254 -260 0
-253 254 260 0
255 -256 261 0
-255 -256 -261 0
255 256 -261 0
-255 256 261 0
257 -258 262 0
-257 -258 -262 0
257 258 -262 0
-257 258 262 0
259 -260 263 0
-259 -260 -263 0
259 260 -263 0
-259 260 263 0
261 -262 264 0
-261 -262 -264 0
261 262 -264 0
-261 262 264 0
263 264 0
-263 -264 0
-2 5 265 0
2 5 -265 0
-2 -5 -265 0
2 -5 265 0
-9 -11 266 0
9 -11 -266 0
-9 11 -266 0
9 11 266 0
12 13 267 0
-12 13 -267 0
12 -13 -267 0
-12 -13 267 0
-16 17 268 0
16 17 -268 0
-16 -17 -268 0
16 -17 268 0
18 -19 269 0
-18 -19 -269 0
18 19 -269 0
-18 19 269 0
-24 -29 270 0
24 -29 -270 0
-24 29 -270 0
24 29 270 0
-30 -33 271 0
30 -33 -271 0
-30 33 -271 0
30 33 271 0
-34 -35 272 0
34 -35 -272 0
-34 35 -272 0
34 35 272 0
-37 41 273 0
37 41 -273 0
-37 -41 -273 0
37 -41 273 0
42 -45 274 0
-42 -45 -274 0
42 45 -274 0
-42 45 274 0
47 50 275 0
-47 50 -275 0
47 -50 -275 0
-47 -50 275 0
265 -266 276 0
-265 -266 -276 0
265 266 -276 0
-265 266 276 0
267 -268 277 0
-267 -268 -277 0
267 268 -277 0
-267 268 277 0
269 -270 278 0
-269 -270 -278 0
269 270 -278 0
-269 270 278 0
271 -272 279 0
-271 -272 -279 0
271 272 -279 0
-271 272 279 0
273 -274 280 0
-273 -274 -280 0
273 274 -280 0
-273 274 280 0
275 -276 281 0
-275 -276 -281 0
275 276 -281 0
-275 276 281 0
277 -278 282 0
-277 -278 -282 0
277 278 -282 0
-277 278 282 0
279 -280 283 0
-279 -280 -283 0
279 280 -283 0
-279 280 283 0
-281 -282 283 0
281 -282 -283 0
-281 282 -283 0
281 282 283 0
-1 3 284 0
1 3 -284 0
-1 -3 -284 0
1 -3 284 0
4 -5 285 0
-4 -5 -285 0
4 5 -285 0
-4 5 285 0
-7 -8 286 0
7 -8 -286 0
-7 8 -286 0
7 8 286 0
-12 14 287 0
12 14 -287 0
-12 -14 -287 0
12 -14 287 0
16 19 288 0
-16 19 -288 0
16 -19 -288 0
-16 -19 288 0
-22 -25 289 0
22 -25 -289 0
-22 25 -289 0
22 25 289 0
27 -28 290 0
-27 -28 -290 0
27 28 -290 0
-27 28 290 0
-32 -33 291 0
32 -33 -291 0
-32 33 -291 0
32 33 291 0
-34 -35 292 0
34 -35 -292 0
-34 35 -292 0
34 35 292 0
36 37 293 0
-36 37 -293 0
36 -37 -293 0
-36 -37 293 0
-38 39 294 0
38 39 -294 0
-38 -39 -294 0
38 -39 294 0
43 44 295 0
-43 44 -295 0
43 -44 -295 0
-43 -44 295 0
46 -47 296 0
-46 -47 -296 0
46 47 -296 0
-46 47 296 0
284 -285 297 0
-284 -285 -297 0
284 285 -297 0
-284 285 297 0
286 -287 298 0
-286 -287 -298 0
286 287 -298 0
-286 287 298 0
288 -289 299 0
-288 -289 -299 0
288 289 -299 0
-288 289 299 0
290 -291 300 0
-290 -291 -300 0
290 291 -300 0
-290 291 300 0
292 -293 301 0
-292 -293 -301 0
292 293 -301 0
-292 293 301 0
294 -295 302 0
-294 -295 -302 0
294 295 -302 0
-294 295 302 0
296 -297 303 0
-296 -297 -303 0
296 297 -303 0
-296 297 303 0
298 -299 304 0
-298 -299 -304 0
298 299 -304 0
-298 299 304 0
300 -301 305 0
-300 -301 -305 0
300 301 -305 0
-300 301 305 0
302 -303 306 0
-302 -303 -306 0
302 303 -306 0
-302 303 306 0
304 -305 307 0
-304 -305 -307 0
304 305 -307 0
-304 305 307 0
306 307 0
-306 -307 0
1 -2 308 0
-1 -2 -308 0
1 2 -308 0
-1 2 308 0
6 -11 309 0
-6 -11 -309 0
6 11 -309 0
-6 11 309 0
-13 -14 310 0
13 -14 -310 0
-13 14 -310 0
13 14 310 0
15 -16 311 0
-15 -16 -311 0
15 16 -311 0
-15 16 311 0
21 -27 312 0
-21 -27 -312 0
21 27 -312 0
-21 27 312 0
30 -31 313 0
-30 -31 -313 0
30 31 -313 0
-30 31 313 0
32 -34 314 0
-32 -34 -314 0
32 34 -314 0
-32 34 314 0
-35 -36 315 0
35 -36 -315 0
-35 36 -315 0
35 36 315 0
-37 -39 316 0
37 -39 -316 0
-37 39 -316 0
37 39 316 0
-43 -46 317 0
43 -46 -317 0
-43 46 -317 0
43 46 317 0
47 -48 318 0
-47 -48 -318 0
47 48 -318 0
-47 48 318 0
308 -309 319 0
-308 -309 -319 0
308 309 -319 0
-308 309 319 0
310 -311 320 0
-310 -311 -320 0
310 311 -320 0
-310 311 320 0
312 -313 321 0
-312 -313 -321 0
312 313 -321 0
-312 313 321 0
314 -315 322 0
-314 -315 -322 0
314 315 -322 0
-314 315 322 0
316 -317 323 0
-316 -317 -323 0
316 317 -323 0
-316 317 323 0
318 -319 324 0
-318 -319 -324 0
318 319 -324 0
-318 319 324 0
320 -321 325 0
-320 -321 -325 0
320 321 -325 0
-320 321 325 0
322 -323 326 0
-322 -323 -326 0
322 323 -326 0
-322 323 326 0
-324 -325 326 0
324 -325 -326 0
-324 325 -326 0
324 325 326 0
1 4 327 0
-1 4 -327 0
1 -4 -327 0
-1 -4 327 0
-6 10 328 0
6 10 -328 0
-6 -10 -328 0
6 -10 328 0
-12 -14 329 0
12 -14 -329 0
-12 14 -329 0
12 14 329 0
-15 21 330 0
15 21 -330 0
-15 -21 -330 0
15 -21 330 0
-22 24 331 0
22 24 -331 0
-22 -24 -331 0
22 -24 331 0
-25 -27 332 0
25 -27 -332 0
-25 27 -332 0
25 27 332 0
-30 -33 333 0
30 -33 -333 0
-30 33 -333 0
30 33 333 0
35 36 334 0
-35 36 -334 0
35 -36 -334 0
-35 -36 334 0
37 -42 335 0
-37 -42 -335 0
37 42 -335 0
-37 42 335 0
-43 46 336 0
43 46 -336 0
-43 -46 -336 0
43 -46 336 0
327 -328 337 0
-327 -328 -337 0
327 328 -337 0
-327 328 337 0
329 -330 338 0
-329 -330 -338 0
329 330 -338 0
-329 330 338 0
331 -332 339 0
-331 -332 -339 0
331 332 -339 0
-331 332 339 0
333 -334 340 0
-333 -334 -340 0
333 334 -340 0
-333 334 340 0
335 -336 341 0
-335 -336 -341 0
335 336 -341 0
-335 336 341 0
337 -338 342 0
-337 -338 -342 0
337 338 -342 0
-337 338 342 0
339 -340 343 0
-339 -340 -343 0
339 340 -343 0
-339 340 343 0
-341 -342 343 0
341 -342 -343 0
-341 342 -343 0
341 342 343 0
-2 -3 344 0
2 -3 -344 0
-2 3 -344 0
2 3 344 0
4 7 345 0
-4 7 -345 0
4 -7 -345 0
-4 -7 345 0
8 10 346 0
-8 10 -346 0
8 -10 -346 0
-8 -10 346 0
-11 12 347 0
11 12 -347 0
-11 -12 -347 0
11 -12 347 0
-13 -17 348 0
13 -17 -348 0
-13 17 -348 0
13 17 348 0
21 -23 349 0
-21 -23 -349 0
21 23 -349 0
-21 23 349 0
-25 -26 350 0
25 -26 -350 0
-25 26 -350 0
25 26 350 0
28 30 351 0
-28 30 -351 0
28 -30 -351 0
-28 -30 351 0
31 36 352 0
-31 36 -352 0
31 -36 -352 0
-31 -36 352 0
-39 43 353 0
39 43 -353 0
-39 -43 -353 0
39 -43 353 0
-45 -47 354 0
45 -47 -354 0
-45 47 -354 0
45 47 354 0
344 -345 355 0
-344 -345 -355 0
344 345 -355 0
-344 345 355 0
346 -347 356 0
-346 -347 -356 0
346 347 -356 0
-346 347 356 0
348 -349 357 0
-348 -349 -357 0
348 349 -357 0
-348 349 357 0
350 -351 358 0
-350 -351 -358 0
350 351 -358 0
-350 351 358 0
352 -353 359 0
-352 -353 -359 0
352 353 -359 0
-352 353 359 0
354 -355 360 0
-354 -355 -360 0
354 355 -360 0
-354 355 360 0
356 -357 361 0
-356 -357 -361 0
356 357 -361 0
-356 357 361 0
358 -359 362 0
-358 -359 -362 0
358 359 -362 0
-358 359 362 0
-360 -361 362 0
360 -361 -362 0
-360 361 -362 0
360 361 362 0
-12 363 0
-24 363 0
-12 -24 364 0
-23 363 0
-12 -23 364 0
-24 -23 364 0
-12 -24 -23 365 0
-22 366 0
-21 366 0
-22 -21 367 0
-20 366 0
-22 -20 367 0
-21 -20 367 0
-22 -21 -20 368 0
-363 369 0
-364 370 0
-365 371 0
-366 369 0
-367 370 0
-368 371 0
-363 -366 370 0
-363 -367 371 0
-363 -368 372 0
-364 -366 371 0
-364 -367 372 0
-364 -368 373 0
-365 -366 372 0
-365 -367 373 0
-365 -368 374 0
-19 375 0
-18 375 0
-19 -18 376 0
-17 375 0
-19 -17 376 0
-18 -17 376 0
-19 -18 -17 377 0
-16 378 0
-15 378 0
-16 -15 379 0
-14 378 0
-16 -14 379 0
-15 -14 379 0
-16 -15 -14 380 0
-375 381 0
-376 382 0
-377 383 0
-378 381 0
-379 382 0
-380 383 0
-375 -378 382 0
-375 -379 383 0
-375 -380 384 0
-376 -378 383 0
-376 -379 384 0
-376 -380 385 0
-377 -378 384 0
-377 -379 385 0
-377 -380 386 0
-369 387 0
-371 388 0
-373 389 0
-381 387 0
-383 388 0
-385 389 0
-369 -381 388 0
-369 -383 389 0
-369 -385 390 0
-371 -381 389 0
-371 -383 390 0
-371 -385 391 0
-373 -381 390 0
-373 -383 391 0
-373 -385 392 0
-370 393 0
-372 394 0
-374 395 0
-382 393 0
-384 394 0
-386 395 0
-370 -382 394 0
-370 -384 395 0
-370 -386 396 0
-372 -382 395 0
-372 -384 396 0
-372 -386 397 0
-374 -382 396 0
-374 -384 397 0
-374 -386 398 0
-388 399 0
-393 399 0
-388 -393 400 0
-389 401 0
-394 401 0
-389 -394 402 0
-390 403 0
-395 403 0
-390 -395 404 0
-391 405 0
-396 405 0
-391 -396 406 0
-392 407 0
-397 407 0
-392 -397 408 0
-13 409 0
-25 409 0
-13 -25 410 0
-11 409 0
-13 -11 410 0
-25 -11 410 0
-13 -25 -11 411 0
-10 412 0
-9 412 0
-10 -9 413 0
-8 412 0
-10 -8 413 0
-9 -8 413 0
-10 -9 -8 414 0
-409 415 0
-410 416 0
-411 417 0
-412 415 0
-413 416 0
-414 417 0
-409 -412 416 0
-409 -413 417 0
-409 -414 418 0
-410 -412 417 0
-410 -413 418 0
-410 -414 419 0
-411 -412 418 0
-411 -413 419 0
-411 -414 420 0
-7 421 0
-6 421 0
-7 -6 422 0
-5 421 0
-7 -5 422 0
-6 -5 422 0
-7 -6 -5 423 0
-4 424 0
-3 424 0
-4 -3 425 0
-2 424 0
-4 -2 425 0
-3 -2 425 0
-4 -3 -2 426 0
-421 427 0
-422 428 0
-423 429 0
-424 427 0
-425 428 0
-426 429 0
-421 -424 428 0
-421 -425 429 0
-421 -426 430 0
-422 -424 429 0
-422 -425 430 0
-422 -426 431 0
-423 -424 430 0
-423 -425 431 0
-423 -426 432 0
-415 433 0
-417 434 0
-419 435 0
-427 433 0
-429 434 0
-431 435 0
-415 -427 434 0
-415 -429 435 0
-415 -431 436 0
-417 -427 435 0
-417 -429 436 0
-417 -431 437 0
-419 -427 436 0
-419 -429 437 0
-419 -431 438 0
-416 439 0
-418 440 0
-420 441 0
-428 439 0
-430 440 0
-432 441 0
-416 -428 440 0
-416 -430 441 0
-416 -432 442 0
-418 -428 441 0
-418 -430 442 0
-418 -432 443 0
-420 -428 442 0
-420 -430 443 0
-420 -432 444 0
-434 445 0
-439 445 0
-434 -439 446 0
-435 447 0
-440 447 0
-435 -440 448 0
-436 449 0
-441 449 0
-436 -441 450 0
-437 451 0
-442 451 0
-437 -442 452 0
-438 453 0
-443 453 0
-438 -443 454 0
-1 455 0
-37 455 0
-1 -37 456 0
-49 455 0
-1 -49 456 0
-37 -49 456 0
-1 -37 -49 457 0
-48 458 0
-47 458 0
-48 -47 459 0
-46 458 0
-48 -46 459 0
-47 -46 459 0
-48 -47 -46 460 0
-455 461 0
-456 462 0
-457 463 0
-458 461 0
-459 462 0
-460 463 0
-455 -458 462 0
-455 -459 463 0
-455 -460 464 0
-456 -458 463 0
-456 -459 464 0
-456 -460 465 0
-457 -458 464 0
-457 -459 465 0
-457 -460 466 0
-45 467 0
-44 467 0
-45 -44 468 0
-43 467 0
-45 -43 468 0
-44 -43 468 0
-45 -44 -43 469 0
-42 470 0
-41 470 0
-42 -41 471 0
-40 470 0
-42 -40 471 0
-41 -40 471 0
-42 -41 -40 472 0
-467 473 0
-468 474 0
-469 475 0
-470 473 0
-471 474 0
-472 475 0
-467 -470 474 0
-467 -471 475 0
-467 -472 476 0
-468 -470 475 0
-468 -471 476 0
-468 -472 477 0
-469 -470 476 0
-469 -471 477 0
-469 -472 478 0
-461 479 0
-463 480 0
-465 481 0
-473 479 0
-475 480 0
-477 481 0
-461 -473 480 0
-461 -475 481 0
-461 -477 482 0
-463 -473 481 0
-463 -475 482 0
-463 -477 483 0
-465 -473 482 0
-465 -475 483 0
-465 -477 484 0
-462 485 0
-464 486 0
-466 487 0
-474 485 0
-476 486 0
-478 487 0
-462 -474 486 0
-462 -476 487 0
-462 -478 488 0
-464 -474 487 0
-464 -476 488 0
-464 -478 489 0
-466 -474 488 0
-466 -476 489 0
-466 -478 490 0
-480 491 0
-485 491 0
-480 -485 492 0
-481 493 0
-486 493 0
-481 -486 494 0
-482 495 0
-487 495 0
-482 -487 496 0
-483 497 0
-488 497 0
-483 -488 498 0
-484 499 0
-489 499 0
-484 -489 500 0
-39 501 0
-38 501 0
-39 -38 502 0
-50 501 0
-39 -50 502 0
-38 -50 502 0
-39 -38 -50 503 0
-36 504 0
-35 504 0
-36 -35 505 0
-34 504 0
-36 -34 505 0
-35 -34 505 0
-36 -35 -34 506 0
-501 507 0
-502 508 0
-503 509 0
-504 507 0
-505 508 0
-506 509 0
-501 -504 508 0
-501 -505 509 0
-501 -506 510 0
-502 -504 509 0
-502 -505 510 0
-502 -506 511 0
-503 -504 510 0
-503 -505 511 0
-503 -506 512 0
-33 513 0
-32 513 0
-33 -32 514 0
-31 513 0
-33 -31 514 0
-32 -31 514 0
-33 -32 -31 515 0
-30 516 0
-29 516 0
-30 -29 517 0
-28 518 0
-27 518 0
-28 -27 519 0
-26 518 0
-28 -26 519 0
-27 -26 519 0
-28 -27 -26 520 0
-516 521 0
-517 522 0
-518 521 0
-519 522 0
-520 523 0
-516 -518 522 0
-516 -519 523 0
-516 -520 524 0
-517 -518 523 0
-517 -519 524 0
-517 -520 525 0
-513 526 0
-514 527 0
-515 528 0
-521 526 0
-522 527 0
-523 528 0
-524 529 0
-525 530 0
-513 -521 527 0
-513 -522 528 0
-513 -523 529 0
-513 -524 530 0
-513 -525 531 0
-514 -521 528 0
-514 -522 529 0
-514 -523 530 0
-514 -524 531 0
-514 -525 532 0
-515 -521 529 0
-515 -522 530 0
-515 -523 531 0
-515 -524 532 0
-515 -525 533 0
-507 534 0
-509 535 0
-511 536 0
-526 534 0
-528 535 0
-530 536 0
-532 537 0
-507 -526 535 0
-507 -528 536 0
-507 -530 537 0
-507 -532 538 0
-509 -526 536 0
-509 -528 537 0
-509 -530 538 0
-509 -532 539 0
-511 -526 537 0
-511 -528 538 0
-511 -530 539 0
-511 -532 540 0
-508 541 0
-510 542 0
-512 543 0
-527 541 0
-529 542 0
-531 543 0
-533 544 0
-508 -527 542 0
-508 -529 543 0
-508 -531 544 0
-508 -533 545 0
-510 -527 543 0
-510 -529 544 0
-510 -531 545 0
-510 -533 546 0
-512 -527 544 0
-512 -529 545 0
-512 -531 546 0
-512 -533 547 0
-535 548 0
-541 548 0
-535 -541 549 0
-536 550 0
-542 550 0
-536 -542 551 0
-537 552 0
-543 552 0
-537 -543 553 0
-538 554 0
-544 554 0
-538 -544 555 0
-539 556 0
-545 556 0
-539 -545 557 0
-540 558 0
-546 558 0
-540 -546 559 0
-479 560 0
-494 561 0
-498 562 0
-534 560 0
-551 561 0
-555 562 0
-559 563 0
-479 -534 561 0
-479 -551 562 0
-479 -555 563 0
-479 -559 564 0
-494 -534 562 0
-494 -551 563 0
-494 -555 564 0
-494 -559 565 0
-498 -534 563 0
-498 -551 564 0
-498 -555 565 0
-492 566 0
-496 567 0
-500 568 0
-549 566 0
-553 567 0
-557 568 0
-492 -549 567 0
-492 -553 568 0
-492 -557 569 0
-496 -549 568 0
-496 -553 569 0
-496 -557 570 0
-500 -549 569 0
-500 -553 570 0
-561 571 0
-566 571 0
-561 -566 572 0
-562 573 0
-567 573 0
-562 -567 574 0
-563 575 0
-568 575 0
-563 -568 576 0
-564 577 0
-569 577 0
-564 -569 578 0
-565 579 0
-570 579 0
-565 -570 580 0
-491 581 0
-495 582 0
-499 583 0
-548 581 0
-552 582 0
-556 583 0
-547 584 0
-491 -548 582 0
-491 -552 583 0
-491 -556 584 0
-491 -547 585 0
-495 -548 583 0
-495 -552 584 0
-495 -556 585 0
-495 -547 586 0
-499 -548 584 0
-499 -552 585 0
-499 -556 586 0
-493 587 0
-497 588 0
-490 589 0
-550 587 0
-554 588 0
-558 589 0
-493 -550 588 0
-493 -554 589 0
-493 -558 590 0
-497 -550 589 0
-497 -554 590 0
-497 -558 591 0
-490 -550 590 0
-490 -554 591 0
-582 592 0
-587 592 0
-582 -587 593 0
-583 594 0
-588 594 0
-583 -588 595 0
-584 596 0
-589 596 0
-584 -589 597 0
-585 598 0
-590 598 0
-585 -590 599 0
-586 600 0
-591 600 0
-571 601 0
-581 601 0
-571 -581 602 0
-572 603 0
-592 603 0
-572 -592 604 0
-573 605 0
-593 605 0
-573 -593 606 0
-574 607 0
-594 607 0
-574 -594 608 0
-575 609 0
-595 609 0
-575 -595 610 0
-576 611 0
-596 611 0
-576 -596 612 0
-577 613 0
-597 613 0
-577 -597 614 0
-578 615 0
-598 615 0
-578 -598 616 0
-579 617 0
-599 617 0
-579 -599 618 0
-580 619 0
-600 619 0
-580 -600 620 0
-433 621 0
-448 622 0
-452 623 0
-560 621 0
-604 622 0
-608 623 0
-612 624 0
-616 625 0
-620 626 0
-433 -560 622 0
-433 -604 623 0
-433 -608 624 0
-433 -612 625 0
-433 -616 626 0
-448 -560 623 0
-448 -604 624 0
-448 -608 625 0
-448 -612 626 0
-452 -560 624 0
-452 -604 625 0
-452 -608 626 0
-446 627 0
-450 628 0
-454 629 0
-602 627 0
-606 628 0
-610 629 0
-614 630 0
-618 631 0
-446 -602 628 0
-446 -606 629 0
-446 -610 630 0
-446 -614 631 0
-450 -602 629 0
-450 -606 630 0
-450 -610 631 0
-454 -602 630 0
-454 -606 631 0
-622 632 0
-627 632 0
-622 -627 633 0
-623 634 0
-628 634 0
-623 -628 635 0
-624 636 0
-629 636 0
-624 -629 637 0
-625 638 0
-630 638 0
-625 -630 639 0
-626 640 0
-631 640 0
-626 -631 641 0
-445 642 0
-449 643 0
-453 644 0
-601 642 0
-605 643 0
-609 644 0
-613 645 0
-617 646 0
-445 -601 643 0
-445 -605 644 0
-445 -609 645 0
-445 -613 646 0
-445 -617 647 0
-449 -601 644 0
-449 -605 645 0
-449 -609 646 0
-449 -613 647 0
-453 -601 645 0
-453 -605 646 0
-453 -609 647 0
-447 648 0
-451 649 0
-444 650 0
-603 648 0
-607 649 0
-611 650 0
-615 651 0
-619 652 0
-447 -603 649 0
-447 -607 650 0
-447 -611 651 0
-447 -615 652 0
-451 -603 650 0
-451 -607 651 0
-451 -611 652 0
-444 -603 651 0
-444 -607 652 0
-643 653 0
-648 653 0
-643 -648 654 0
-644 655 0
-649 655 0
-644 -649 656 0
-645 657 0
-650 657 0
-645 -650 658 0
-646 659 0
-651 659 0
-646 -651 660 0
-647 661 0
-652 661 0
-632 662 0
-642 662 0
-632 -642 663 0
-633 664 0
-653 664 0
-633 -653 665 0
-634 666 0
-654 666 0
-634 -654 667 0
-635 668 0
-655 668 0
-635 -655 669 0
-636 670 0
-656 670 0
-636 -656 671 0
-637 672 0
-657 672 0
-637 -657 673 0
-638 674 0
-658 674 0
-638 -658 675 0
-639 676 0
-659 676 0
-639 -659 677 0
-640 678 0
-660 678 0
-640 -660 679 0
-641 680 0
-661 680 0
-641 -661 681 0
-387 682 0
-402 683 0
-406 684 0
-621 682 0
-665 683 0
-669 684 0
-673 685 0
-677 686 0
-681 687 0
-387 -621 683 0
-387 -665 684 0
-387 -669 685 0
-387 -673 686 0
-387 -677 687 0
-402 -621 684 0
-402 -665 685 0
-402 -669 686 0
-402 -673 687 0
-406 -621 685 0
-406 -665 686 0
-406 -669 687 0
-400 688 0
-404 689 0
-408 690 0
-663 688 0
-667 689 0
-671 690 0
-675 691 0
-679 692 0
-400 -663 689 0
-400 -667 690 0
-400 -671 691 0
-400 -675 692 0
-404 -663 690 0
-404 -667 691 0
-404 -671 692 0
-408 -663 691 0
-408 -667 692 0
-683 693 0
-688 693 0
-683 -688 694 0
-684 695 0
-689 695 0
-684 -689 696 0
-685 697 0
-690 697 0
-685 -690 698 0
-686 699 0
-691 699 0
-686 -691 700 0
-687 701 0
-692 701 0
-687 -692 702 0
-399 703 0
-403 704 0
-407 705 0
-662 703 0
-666 704 0
-670 705 0
-674 706 0
-678 707 0
-399 -662 704 0
-399 -666 705 0
-399 -670 706 0
-399 -674 707 0
-399 -678 708 0
-403 -662 705 0
-403 -666 706 0
-403 -670 707 0
-403 -674 708 0
-407 -662 706 0
-407 -666 707 0
-407 -670 708 0
-401 709 0
-405 710 0
-398 711 0
-664 709 0
-668 710 0
-672 711 0
-676 712 0
-680 713 0
-401 -664 710 0
-401 -668 711 0
-401 -672 712 0
-401 -676 713 0
-405 -664 711 0
-405 -668 712 0
-405 -672 713 0
-398 -664 712 0
-398 -668 713 0
-704 714 0
-709 714 0
-704 -709 715 0
-705 716 0
-710 716 0
-705 -710 717 0
-706 718 0
-711 718 0
-706 -711 719 0
-707 720 0
-712 720 0
-707 -712 721 0
-708 722 0
-713 722 0
-693 723 0
-703 723 0
-693 -703 724 0
-694 725 0
-714 725 0
-694 -714 726 0
-695 727 0
-715 727 0
-695 -715 728 0
-696 729 0
-716 729 0
-696 -716 730 0
-697 731 0
-717 731 0
-697 -717 732 0
-698 733 0
-718 733 0
-698 -718 734 0
-699 735 0
-719 735 0
-699 -719 736 0
-700 737 0
-720 737 0
-700 -720 738 0
-701 739 0
-721 739 0
-701 -721 740 0
-702 741 0
-722 741 0
-702 -722 742 0
-742 0
